NAME          ClpDefau  FREE
ROWS
 N  OBJROW
 L  ZMUNI1_PCT
 L  ZMUNI2_PCT
 L  ZMUNI3_PCT
 L  ZMUNI4_PCT
 L  ZMUNI5_PCT
 L  ZMUNI6_PCT
 L  ZMUNI7_PCT
 L  ZMUNI8_PCT
 L  ZMUNI9_PCT
COLUMNS
    QMUNI1 OBJROW 1.          
    QMUNI1 ZMUNI1_PCT 28539.0853  
    QMUNI1 ZMUNI2_PCT 1657.8675   
    QMUNI1 ZMUNI3_PCT 4127.1209   
    QMUNI1 ZMUNI4_PCT 3005.88608  
    QMUNI1 ZMUNI5_PCT  -127.2202  
    QMUNI1 ZMUNI6_PCT 52.0706     
    QMUNI1 ZMUNI7_PCT 1473.0453   
    QMUNI1 ZMUNI8_PCT 1137.9242   
    QMUNI1 ZMUNI9_PCT 192.2608    
    QMUNI2 OBJROW 1.          
    QMUNI2 ZMUNI1_PCT 1606.9412   
    QMUNI2 ZMUNI2_PCT 33901.9776  
    QMUNI2 ZMUNI3_PCT 2435.8749   
    QMUNI2 ZMUNI4_PCT 2600.28839  
    QMUNI2 ZMUNI5_PCT  -360.4889  
    QMUNI2 ZMUNI6_PCT  -273.323   
    QMUNI2 ZMUNI7_PCT 729.5608    
    QMUNI2 ZMUNI8_PCT 1059.5322   
    QMUNI2 ZMUNI9_PCT 1024.6277   
    QMUNI3 OBJROW 1.          
    QMUNI3 ZMUNI1_PCT 4073.7152   
    QMUNI3 ZMUNI2_PCT 2513.5041   
    QMUNI3 ZMUNI3_PCT 30098.1521  
    QMUNI3 ZMUNI4_PCT 4977.13089  
    QMUNI3 ZMUNI5_PCT 34.523      
    QMUNI3 ZMUNI6_PCT 162.8876    
    QMUNI3 ZMUNI7_PCT 1362.9913   
    QMUNI3 ZMUNI8_PCT 1234.2453   
    QMUNI3 ZMUNI9_PCT 421.1426    
    QMUNI4 OBJROW 1.          
    QMUNI4 ZMUNI1_PCT 3318.0236   
    QMUNI4 ZMUNI2_PCT 3064.9185   
    QMUNI4 ZMUNI3_PCT 5512.4282   
    QMUNI4 ZMUNI4_PCT 105791.33034
    QMUNI4 ZMUNI5_PCT  -312.6145  
    QMUNI4 ZMUNI6_PCT  -122.4518  
    QMUNI4 ZMUNI7_PCT 1198.3871   
    QMUNI4 ZMUNI8_PCT 1240.3488   
    QMUNI4 ZMUNI9_PCT 749.7788    
    QMUNI5 OBJROW 1.          
    QMUNI5 ZMUNI1_PCT 35.8581     
    QMUNI5 ZMUNI2_PCT 8.9645999999
    QMUNI5 ZMUNI3_PCT 10.4904     
    QMUNI5 ZMUNI4_PCT  -4.3869    
    QMUNI5 ZMUNI5_PCT 34157.753   
    QMUNI5 ZMUNI6_PCT 2254.4861   
    QMUNI5 ZMUNI7_PCT 101.2802    
    QMUNI5 ZMUNI8_PCT 53.0243     
    QMUNI5 ZMUNI9_PCT 29.3732     
    QMUNI6 OBJROW 1.          
    QMUNI6 ZMUNI1_PCT 689.5065    
    QMUNI6 ZMUNI2_PCT 545.6925    
    QMUNI6 ZMUNI3_PCT 619.5068    
    QMUNI6 ZMUNI4_PCT 506.68717   
    QMUNI6 ZMUNI5_PCT 3038.2156   
    QMUNI6 ZMUNI6_PCT 32469.7495  
    QMUNI6 ZMUNI7_PCT 1194.3817   
    QMUNI6 ZMUNI8_PCT 1080.3223   
    QMUNI6 ZMUNI9_PCT 1102.0661   
    QMUNI7 OBJROW 1.          
    QMUNI7 ZMUNI1_PCT 1393.8903   
    QMUNI7 ZMUNI2_PCT 772.667     
    QMUNI7 ZMUNI3_PCT 1215.1718   
    QMUNI7 ZMUNI4_PCT 931.07224   
    QMUNI7 ZMUNI5_PCT 12.3977     
    QMUNI7 ZMUNI6_PCT 226.593     
    QMUNI7 ZMUNI7_PCT 29989.4333  
    QMUNI7 ZMUNI8_PCT 2236.7478   
    QMUNI7 ZMUNI9_PCT 562.6679    
    QMUNI8 OBJROW 1.          
    QMUNI8 ZMUNI1_PCT 1110.2676   
    QMUNI8 ZMUNI2_PCT 969.8868    
    QMUNI8 ZMUNI3_PCT 1143.8369   
    QMUNI8 ZMUNI4_PCT 893.116     
    QMUNI8 ZMUNI5_PCT  -184.6314  
    QMUNI8 ZMUNI6_PCT  -47.6837   
    QMUNI8 ZMUNI7_PCT 2279.8538   
    QMUNI8 ZMUNI8_PCT 28263.0921  
    QMUNI8 ZMUNI9_PCT 1245.1172   
    QMUNI9 OBJROW 1.          
    QMUNI9 ZMUNI1_PCT 183.6776    
    QMUNI9 ZMUNI2_PCT 496.4829    
    QMUNI9 ZMUNI3_PCT 277.9006    
    QMUNI9 ZMUNI4_PCT 250.81635   
    QMUNI9 ZMUNI5_PCT  -494.5755  
    QMUNI9 ZMUNI6_PCT  -433.9218  
    QMUNI9 ZMUNI7_PCT 93.0786     
    QMUNI9 ZMUNI8_PCT 618.7439    
    QMUNI9 ZMUNI9_PCT 26083.5648  
RHS
    RHS ZMUNI1_PCT 0.0213913091
    RHS ZMUNI2_PCT -0.037326086
    RHS ZMUNI3_PCT -0.057906011
    RHS ZMUNI4_PCT -0.091039439
    RHS ZMUNI5_PCT -0.048934968
    RHS ZMUNI6_PCT -0.025514191
    RHS ZMUNI7_PCT 0.0066954563
    RHS ZMUNI8_PCT -0.035013046
    RHS ZMUNI9_PCT -0.067210266
BOUNDS
 LO BOUND QMUNI1 -0.000907812
 UP BOUND QMUNI1      1.1e+10
 LO BOUND QMUNI2 -0.000626128
 UP BOUND QMUNI2      1.1e+10
 LO BOUND QMUNI3 -0.000676585
 UP BOUND QMUNI3      1.1e+10
 LO BOUND QMUNI4 -0.000260044
 UP BOUND QMUNI4      1.1e+10
 LO BOUND QMUNI5 -0.000470303
 UP BOUND QMUNI5      1.1e+10
 LO BOUND QMUNI6 -0.000644694
 UP BOUND QMUNI6      1.1e+10
 LO BOUND QMUNI7 -0.000287515
 UP BOUND QMUNI7      1.1e+10
 LO BOUND QMUNI8 -0.000397946
 UP BOUND QMUNI8      1.1e+10
 LO BOUND QMUNI9 -0.000435118
 UP BOUND QMUNI9      1.1e+10
ENDATA
